NAME : tsp_320_sol.txt
COMMENT : OR-Tools Guided Local Search
TYPE : TOUR
DIMENSION : 50
COST : 5685
STATUS : ROUTING_SUCCESS
GAP : 0.00% (Reference Solution)
TOUR_SECTION
1
17
35
12
10
32
8
6
5
50
7
23
3
43
13
37
16
24
21
28
26
31
36
47
41
38
27
49
11
39
30
4
46
33
45
15
22
48
20
44
29
19
40
25
14
42
18
34
2
9
-1
